# AMPL MODEL: ./res/solid.ampl

# Timestamp: 17 February 2025, 10:41:20 AM

param MAXWORK := 32;

param:
TNAME: TWORK :=
'kilo2.sf' 40
'kilo2.sm' 60
'november2.sf' 60
'november2.sm' 120
'oscar2.sf' 40
'oscar2.sm' 120
'papa2.sf' 60
'papa2.sm' 160
'zulu2.se' 200
'zulu2.sf' 40
'zulu2.sm' 80;

set TSCOPE['kilo2.sf'] :=
58 59 60 63
;

set TSCOPE['kilo2.sm'] :=
3 4 7 8 9 10 11 14 15 16 17 18 21 22 23 24 25 28 29 30 31 32 35 36 37 38 39 42 43 44 45 46 49 50 51 52 53 56 57
;

set TSCOPE['november2.sf'] :=
88 91 92 93 94 95 98
;

set TSCOPE['november2.sm'] :=
3 4 7 8 9 10 11 14 15 16 17 18 21 22 23 24 25 28 29 30 31 32 35 36 37 38 39 42 43 44 45 46 49 50 51 52 53 56 57 58 59 60 63 64 65 66 67 70 71 72
73 74 77 78 79 80 81 84 85 86 87
;

set TSCOPE['oscar2.sf'] :=
175 176 177 178 179 182
;

set TSCOPE['oscar2.sm'] :=
3 4 7 8 9 10 11 14 15 16 17 18 21 22 23 24 25 28 29 30 31 32 35 36 37 38 39 42 43 44 45 46 49 50 51 52 53 56 57 58 59 60 63 64 65 66 67 70 71 72
73 74 77 78 79 80 81 84 85 86 87 88 91 92 93 94 95 98 99 100 101 102 105 106 107 108 109 112 113 114 115 116 119 120 121 123 126 127 128 129 130 133 134 135 136 137 140 141 142 143
144 147 148 149 150 151 154 155 156 157 158 161 162 163 164 165 168 169 170 171 172
;

set TSCOPE['papa2.sf'] :=
175 176 177 178 179 182
;

set TSCOPE['papa2.sm'] :=
3 4 7 8 9 10 11 14 15 16 17 18 21 22 23 24 25 28 29 30 31 32 35 36 37 38 39 42 43 44 45 46 49 50 51 52 53 56 57 58 59 60 63 64 65 66 67 70 71 72
73 74 77 78 79 80 81 84 85 86 87 88 91 92 93 94 95 98 99 100 101 102 105 106 107 108 109 112 113 114 115 116 119 120 121 123 126 127 128 129 130 133 134 135 136 137 140 141 142 143
144 147 148 149 150 151 154 155 156 157 158 161 162 163 164 165 168 169 170 171 172
;

set TSCOPE['zulu2.se'] :=
168 169 170 171 172 175 176 177 178 179 182 183 184 185 186 189 190 191 192 193 196 197
;

set TSCOPE['zulu2.sf'] :=
329 330 331 332 333 336
;

set TSCOPE['zulu2.sm'] :=
198 199 200 203 204 205 206 207 210 211 212 213 214 217 218 219 220 221 224 225 226 227 228 231 232 233 234 235 238 239 240 241 242 245 246 247 248 249 252 253 254 255 256 259 260 261 262 263 266 267
268 269 270 273 274 275 276 277 280 281 282 283 284 287 288 289 290 291 294 295 296 297 298 301 302 303 304 305 308 309 310 311 312 315 316 317 318 319 322 323 324 325 326
;

set ENAME :=
'SA.Martha';

set ASSIGN :=
('SA.Martha',*)
'kilo2.sf'
'kilo2.sm'
'november2.sf'
'november2.sm'
'oscar2.sf'
'oscar2.sm'
'papa2.sf'
'papa2.sm'
'zulu2.se'
'zulu2.sf'
'zulu2.sm';

param:
XBID: XBEXPERT XBTASK XBS XBE XBL XBU :=
1 'SA.Martha' 'kilo2.sf' 58 63 10 11
2 'SA.Martha' 'kilo2.sm' 2 57 1 2
3 'SA.Martha' 'november2.sf' 88 98 8 9
4 'SA.Martha' 'november2.sm' 2 87 1 2
5 'SA.Martha' 'oscar2.sf' 173 182 6 7
6 'SA.Martha' 'oscar2.sm' 2 172 0 1
7 'SA.Martha' 'papa2.sf' 173 182 10 11
8 'SA.Martha' 'papa2.sm' 2 172 1 2
9 'SA.Martha' 'zulu2.se' 167 197 9 10
10 'SA.Martha' 'zulu2.sf' 329 336 6 7
11 'SA.Martha' 'zulu2.sm' 198 328 0 1;

param:
EBID: EBEXPERT EBS EBE EBL EBU :=
;

param:
PNAME: PERS PERE :=
'Jan.25' 1 16
'Feb.25' 17 45
'Mar.25' 46 76
'Apr.25' 77 105
'May.25' 106 139
'Jun.25' 140 170
'Jul.25' 171 199
'Aug.25' 200 230
'Sep.25' 231 259
'Oct.25' 260 289
'Nov.25' 290 317
'Dec.25' 318 346;

param:
EXPPER: PBL PBU :=
['SA.Martha',*]
'Apr.25' 0 720
'Aug.25' 0 720
'Dec.25' 0 720
'Feb.25' 0 720
'Jan.25' 0 720
'Jul.25' 0 720
'Jun.25' 0 720
'Mar.25' 0 720
'May.25' 0 720
'Nov.25' 0 720
'Oct.25' 0 720
'Sep.25' 0 720;

